
Gurobi 11.0.0 (win64, C++) logging started Mon Jul 28 19:00:56 2025

Set parameter TokenServer to value "141.76.38.119"
### START HEURISTIC APPROACH APPROACH ###
ProblemVariant: 1
### START PREPROCESSING ###
## Start start solution procedure ##
Start solution with 7 Vehicles and total costs 811.516 in 12.2517 s.
### END PREPROCESSING ###
Route 0 0-1-24-25-27-29-0 : weight util 0.600000 | volume util 0.626400 | infeasible with packing heuristic | feasible with CP model
Route 1 0-13-7-16-15-0 : weight util 0.222222 | volume util 0.520044 | infeasible with packing heuristic | feasible with CP model
Route 2 0-28-26-6-4-5-2-0 : weight util 0.888889 | volume util 0.710711 | infeasible with packing heuristic | feasible with CP model
Route 3 0-12-11-10-0 : weight util 0.261111 | volume util 0.603133 | infeasible with packing heuristic | feasible with CP model
Route 4 0-19-18-0 : weight util 0.122222 | volume util 0.401422 | infeasible with packing heuristic | feasible with CP model
Route 5 0-20-3-22-0 : weight util 0.116667 | volume util 0.390978 | infeasible with packing heuristic | feasible with CP model
Route 6 0-21-8-9-17-14-23-0 : weight util 0.622222 | volume util 0.623400 | infeasible with packing heuristic | feasible with CP model
